20
13
7 15 9 0 14 16
8 16 18 3 14 10 4 19 0 6 1 15 2 11 17
2 9 10 12 13 18 1
4 11 0 16 7 15 18 13 12
18 5 2 13 9 6 8 0 16 4 19 10 3
6 7 17
14 17 4 6 0 10 2 12 9 15 13 19
14 16 18 2 1 10 7 17 12 6 4 15 13 5
8 3
7 18 19 0 10 13 5 11 16 12 6 9 4 2 14 3 8
13 12 4 17 1 16 18 14 3 9 2 8 0 10 7 11
15 12 8 11 1 0 9 5 4 10 3 18 13 14 17 6
0 3 7 5 18 6 1 2 9 11 8 10 4 17 13 12 14 19 15 16
